20 5
62 22 77 88 39
68 94 66 57 48
57 6 20 24 86
54 37 87 50 78
50 80 62 60 58
59 78 79 93 88
36 55 10 13 43
46 81 36 13 36
83 67 39 1 88
23 54 25 8 2
2 57 82 63 16
38 20 93 15 13
82 51 66 89 63
9 34 42 42 46
76 25 13 13 23
99 34 77 24 41
76 23 96 56 84
12 94 2 5 9
13 84 57 78 72
19 86 6 58 27
